p cnf 238 1427
144 145 153 0
119 121 130 131 134 0
111 142 0
116 127 152 163 0
85 90 168 192 195 0
113 146 172 0
137 198 200 0
171 174 215 217 0
108 227 0
96 101 0
93 136 0
91 165 0
88 89 123 0
78 82 84 99 156 0
77 95 115 132 0
73 75 140 0
68 70 71 109 0
66 149 159 0
105 175 176 179 0
97 102 180 181 182 0
154 183 185 186 0
143 187 189 0
92 126 128 190 191 0
80 100 193 196 0
158 197 0
133 138 147 199 0
110 201 202 0
161 204 206 207 209 0
210 213 214 216 0
218 220 222 224 0
107 178 226 0
104 228 0
122 229 231 232 233 0
112 117 129 164 234 0
87 169 235 237 0
63 124 238 0
62 81 94 98 114 0
61 74 139 0
58 59 65 69 0
57 148 0
55 184 0
53 54 188 0
51 118 0
50 125 151 0
48 49 157 194 0
47 160 212 0
170 173 219 0
103 106 177 0
41 43 46 0
39 40 155 0
36 38 0
60 72 0
64 67 0
-127 -168 0
-34 -127 0
-34 -168 0
-33 -187 0
-187 -190 0
-32 -187 0
-158 -187 0
-133 -187 0
-33 -190 0
-32 -33 0
-33 -158 0
-33 -133 0
-32 -190 0
-158 -190 0
-133 -190 0
-32 -158 0
-32 -133 0
-133 -158 0
-210 -218 0
-210 -226 0
-210 -228 0
-31 -210 0
-122 -210 0
-218 -226 0
-218 -228 0
-31 -218 0
-122 -218 0
-226 -228 0
-31 -226 0
-122 -226 0
-31 -228 0
-122 -228 0
-31 -122 0
-81 -238 0
-76 -238 0
-74 -238 0
-148 -238 0
-29 -238 0
-76 -81 0
-74 -81 0
-81 -148 0
-29 -81 0
-74 -76 0
-76 -148 0
-29 -76 0
-74 -148 0
-29 -74 0
-29 -148 0
-184 -188 0
-118 -184 0
-162 -184 0
-184 -194 0
-118 -188 0
-162 -188 0
-188 -194 0
-118 -162 0
-118 -194 0
-162 -194 0
-27 -28 0
-28 -155 0
-28 -72 0
-28 -67 0
-27 -155 0
-27 -72 0
-27 -67 0
-72 -155 0
-67 -155 0
-67 -72 0
-187 -210 0
-187 -238 0
-210 -238 0
-33 -127 0
-127 -218 0
-81 -127 0
-127 -184 0
-28 -127 0
-33 -218 0
-33 -81 0
-33 -184 0
-28 -33 0
-81 -218 0
-184 -218 0
-28 -218 0
-81 -184 0
-28 -81 0
-28 -184 0
-168 -190 0
-168 -226 0
-76 -168 0
-168 -188 0
-27 -168 0
-190 -226 0
-76 -190 0
-188 -190 0
-27 -190 0
-76 -226 0
-188 -226 0
-27 -226 0
-76 -188 0
-27 -76 0
-27 -188 0
-32 -34 0
-34 -228 0
-34 -74 0
-34 -118 0
-34 -155 0
-32 -228 0
-32 -74 0
-32 -118 0
-32 -155 0
-74 -228 0
-118 -228 0
-155 -228 0
-74 -118 0
-74 -155 0
-118 -155 0
-31 -158 0
-148 -158 0
-158 -162 0
-72 -158 0
-31 -148 0
-31 -162 0
-31 -72 0
-148 -162 0
-72 -148 0
-72 -162 0
-122 -133 0
-29 -133 0
-133 -194 0
-67 -133 0
-29 -122 0
-122 -194 0
-67 -122 0
-29 -194 0
-29 -67 0
-67 -194 0
-134 -142 0
-90 -134 0
-79 -134 0
-113 -134 0
-134 -198 0
-90 -142 0
-79 -142 0
-113 -142 0
-142 -198 0
-79 -90 0
-90 -113 0
-90 -198 0
-79 -113 0
-79 -198 0
-113 -198 0
-174 -221 0
-101 -174 0
-45 -174 0
-93 -174 0
-174 -230 0
-101 -221 0
-45 -221 0
-93 -221 0
-221 -230 0
-45 -101 0
-93 -101 0
-101 -230 0
-45 -93 0
-45 -230 0
-93 -230 0
-84 -95 0
-71 -84 0
-66 -84 0
-26 -84 0
-25 -84 0
-71 -95 0
-66 -95 0
-26 -95 0
-25 -95 0
-66 -71 0
-26 -71 0
-25 -71 0
-26 -66 0
-25 -66 0
-25 -26 0
-204 -213 0
-51 -54 0
-54 -125 0
-54 -167 0
-51 -125 0
-51 -167 0
-125 -167 0
-23 -40 0
-23 -38 0
-23 -60 0
-38 -40 0
-40 -60 0
-38 -60 0
-134 -174 0
-84 -134 0
-134 -204 0
-84 -174 0
-174 -204 0
-84 -204 0
-142 -221 0
-95 -142 0
-142 -213 0
-95 -221 0
-213 -221 0
-95 -213 0
-90 -101 0
-71 -90 0
-54 -90 0
-23 -90 0
-71 -101 0
-54 -101 0
-23 -101 0
-54 -71 0
-23 -71 0
-23 -54 0
-45 -79 0
-66 -79 0
-51 -79 0
-40 -79 0
-45 -66 0
-45 -51 0
-40 -45 0
-51 -66 0
-40 -66 0
-40 -51 0
-93 -113 0
-26 -113 0
-113 -125 0
-38 -113 0
-26 -93 0
-93 -125 0
-38 -93 0
-26 -125 0
-26 -38 0
-38 -125 0
-198 -230 0
-25 -198 0
-167 -198 0
-60 -198 0
-25 -230 0
-167 -230 0
-60 -230 0
-25 -167 0
-25 -60 0
-60 -167 0
-22 -223 0
-22 -136 0
-22 -165 0
-136 -223 0
-165 -223 0
-136 -165 0
-89 -115 0
-56 -89 0
-89 -175 0
-56 -115 0
-115 -175 0
-56 -175 0
-102 -143 0
-102 -120 0
-102 -128 0
-120 -143 0
-128 -143 0
-120 -128 0
-112 -124 0
-98 -112 0
-21 -112 0
-98 -124 0
-21 -124 0
-21 -98 0
-160 -173 0
-106 -160 0
-46 -160 0
-106 -173 0
-46 -173 0
-46 -106 0
-83 -236 0
-36 -236 0
-64 -236 0
-36 -83 0
-64 -83 0
-36 -64 0
-22 -89 0
-22 -102 0
-22 -112 0
-89 -102 0
-89 -112 0
-102 -112 0
-115 -223 0
-143 -223 0
-124 -223 0
-115 -143 0
-115 -124 0
-124 -143 0
-98 -120 0
-120 -160 0
-120 -236 0
-98 -160 0
-98 -236 0
-160 -236 0
-21 -128 0
-128 -173 0
-83 -128 0
-21 -173 0
-21 -83 0
-83 -173 0
-56 -136 0
-106 -136 0
-36 -136 0
-56 -106 0
-36 -56 0
-36 -106 0
-165 -175 0
-46 -165 0
-64 -165 0
-46 -175 0
-64 -175 0
-46 -64 0
-131 -153 0
-116 -153 0
-20 -153 0
-116 -131 0
-20 -131 0
-20 -116 0
-208 -215 0
-108 -208 0
-19 -208 0
-108 -215 0
-19 -215 0
-19 -108 0
-180 -183 0
-52 -180 0
-150 -180 0
-180 -193 0
-147 -180 0
-52 -183 0
-150 -183 0
-183 -193 0
-147 -183 0
-52 -150 0
-52 -193 0
-52 -147 0
-150 -193 0
-147 -150 0
-147 -193 0
-201 -206 0
-201 -220 0
-104 -201 0
-17 -201 0
-201 -229 0
-206 -220 0
-104 -206 0
-17 -206 0
-206 -229 0
-104 -220 0
-17 -220 0
-220 -229 0
-17 -104 0
-104 -229 0
-17 -229 0
-129 -169 0
-62 -129 0
-129 -139 0
-69 -129 0
-16 -129 0
-62 -169 0
-139 -169 0
-69 -169 0
-16 -169 0
-62 -139 0
-62 -69 0
-16 -62 0
-69 -139 0
-16 -139 0
-16 -69 0
-43 -177 0
-153 -208 0
-153 -180 0
-153 -201 0
-129 -153 0
-180 -208 0
-201 -208 0
-129 -208 0
-180 -201 0
-129 -180 0
-129 -201 0
-131 -215 0
-131 -183 0
-131 -206 0
-131 -169 0
-183 -215 0
-206 -215 0
-169 -215 0
-183 -206 0
-169 -183 0
-169 -206 0
-108 -116 0
-52 -116 0
-116 -220 0
-62 -116 0
-52 -108 0
-108 -220 0
-62 -108 0
-52 -220 0
-52 -62 0
-62 -220 0
-19 -20 0
-20 -150 0
-20 -104 0
-20 -139 0
-19 -150 0
-19 -104 0
-19 -139 0
-104 -150 0
-139 -150 0
-104 -139 0
-17 -193 0
-69 -193 0
-177 -193 0
-17 -69 0
-17 -177 0
-69 -177 0
-147 -229 0
-16 -147 0
-43 -147 0
-16 -229 0
-43 -229 0
-16 -43 0
-217 -225 0
-217 -227 0
-30 -217 0
-225 -227 0
-30 -225 0
-30 -227 0
-77 -82 0
-75 -82 0
-82 -149 0
-75 -77 0
-77 -149 0
-75 -149 0
-185 -189 0
-185 -196 0
-189 -196 0
-207 -214 0
-14 -207 0
-14 -214 0
-39 -86 0
-82 -217 0
-185 -217 0
-207 -217 0
-82 -185 0
-82 -207 0
-185 -207 0
-77 -225 0
-189 -225 0
-214 -225 0
-77 -189 0
-77 -214 0
-189 -214 0
-75 -227 0
-86 -227 0
-75 -86 0
-30 -149 0
-30 -39 0
-39 -149 0
-14 -196 0
-130 -145 0
-85 -145 0
-13 -145 0
-137 -145 0
-145 -203 0
-85 -130 0
-13 -130 0
-130 -137 0
-130 -203 0
-13 -85 0
-85 -137 0
-85 -203 0
-13 -137 0
-13 -203 0
-137 -203 0
-171 -211 0
-96 -211 0
-12 -211 0
-11 -211 0
-91 -211 0
-96 -171 0
-12 -171 0
-11 -171 0
-91 -171 0
-12 -96 0
-11 -96 0
-91 -96 0
-11 -12 0
-12 -91 0
-11 -91 0
-78 -88 0
-88 -109 0
-88 -159 0
-10 -88 0
-88 -105 0
-78 -109 0
-78 -159 0
-10 -78 0
-78 -105 0
-109 -159 0
-10 -109 0
-105 -109 0
-10 -159 0
-105 -159 0
-10 -105 0
-154 -181 0
-126 -181 0
-166 -181 0
-126 -154 0
-154 -166 0
-126 -166 0
-234 -235 0
-37 -234 0
-61 -234 0
-37 -235 0
-61 -235 0
-37 -61 0
-9 -157 0
-145 -211 0
-88 -145 0
-145 -181 0
-145 -234 0
-88 -211 0
-181 -211 0
-211 -234 0
-88 -181 0
-88 -234 0
-181 -234 0
-130 -171 0
-78 -130 0
-130 -154 0
-130 -235 0
-78 -171 0
-154 -171 0
-171 -235 0
-78 -154 0
-78 -235 0
-154 -235 0
-85 -96 0
-85 -109 0
-85 -126 0
-37 -85 0
-96 -109 0
-96 -126 0
-37 -96 0
-109 -126 0
-37 -109 0
-37 -126 0
-12 -13 0
-13 -159 0
-13 -166 0
-13 -61 0
-12 -159 0
-12 -166 0
-12 -61 0
-159 -166 0
-61 -159 0
-61 -166 0
-11 -137 0
-10 -137 0
-9 -137 0
-10 -11 0
-9 -11 0
-9 -10 0
-91 -203 0
-105 -203 0
-157 -203 0
-91 -105 0
-91 -157 0
-105 -157 0
-121 -144 0
-144 -172 0
-8 -144 0
-121 -172 0
-8 -121 0
-8 -172 0
-99 -123 0
-7 -123 0
-123 -176 0
-7 -99 0
-99 -176 0
-7 -176 0
-97 -186 0
-97 -141 0
-92 -97 0
-80 -97 0
-97 -199 0
-141 -186 0
-92 -186 0
-80 -186 0
-186 -199 0
-92 -141 0
-80 -141 0
-141 -199 0
-80 -92 0
-92 -199 0
-80 -199 0
-110 -161 0
-110 -222 0
-107 -110 0
-44 -110 0
-110 -231 0
-161 -222 0
-107 -161 0
-44 -161 0
-161 -231 0
-107 -222 0
-44 -222 0
-222 -231 0
-44 -107 0
-107 -231 0
-44 -231 0
-117 -237 0
-94 -117 0
-35 -117 0
-65 -117 0
-24 -117 0
-94 -237 0
-35 -237 0
-65 -237 0
-24 -237 0
-35 -94 0
-65 -94 0
-24 -94 0
-35 -65 0
-24 -35 0
-24 -65 0
-170 -212 0
-123 -144 0
-97 -144 0
-110 -144 0
-117 -144 0
-97 -123 0
-110 -123 0
-117 -123 0
-97 -110 0
-97 -117 0
-110 -117 0
-99 -121 0
-121 -186 0
-121 -161 0
-121 -237 0
-99 -186 0
-99 -161 0
-99 -237 0
-161 -186 0
-186 -237 0
-161 -237 0
-141 -222 0
-94 -141 0
-141 -212 0
-94 -222 0
-212 -222 0
-94 -212 0
-92 -107 0
-35 -92 0
-92 -170 0
-35 -107 0
-107 -170 0
-35 -170 0
-7 -172 0
-80 -172 0
-44 -172 0
-65 -172 0
-7 -80 0
-7 -44 0
-7 -65 0
-44 -80 0
-65 -80 0
-44 -65 0
-8 -176 0
-8 -199 0
-8 -231 0
-8 -24 0
-176 -199 0
-176 -231 0
-24 -176 0
-199 -231 0
-24 -199 0
-24 -231 0
-152 -192 0
-146 -152 0
-152 -200 0
-152 -205 0
-146 -192 0
-192 -200 0
-192 -205 0
-146 -200 0
-146 -205 0
-200 -205 0
-70 -140 0
-15 -140 0
-6 -140 0
-140 -179 0
-15 -70 0
-6 -70 0
-70 -179 0
-6 -15 0
-15 -179 0
-6 -179 0
-5 -182 0
-182 -191 0
-100 -182 0
-182 -197 0
-138 -182 0
-5 -191 0
-5 -100 0
-5 -197 0
-5 -138 0
-100 -191 0
-191 -197 0
-138 -191 0
-100 -197 0
-100 -138 0
-138 -197 0
-202 -224 0
-178 -202 0
-42 -202 0
-135 -202 0
-202 -232 0
-178 -224 0
-42 -224 0
-135 -224 0
-224 -232 0
-42 -178 0
-135 -178 0
-178 -232 0
-42 -135 0
-42 -232 0
-135 -232 0
-114 -164 0
-4 -164 0
-59 -164 0
-57 -164 0
-3 -164 0
-4 -114 0
-59 -114 0
-57 -114 0
-3 -114 0
-4 -59 0
-4 -57 0
-3 -4 0
-57 -59 0
-3 -59 0
-3 -57 0
-2 -50 0
-49 -50 0
-2 -49 0
-182 -202 0
-164 -182 0
-164 -202 0
-140 -152 0
-5 -152 0
-152 -224 0
-114 -152 0
-5 -140 0
-140 -224 0
-114 -140 0
-5 -224 0
-5 -114 0
-114 -224 0
-70 -192 0
-191 -192 0
-178 -192 0
-4 -192 0
-70 -191 0
-70 -178 0
-4 -70 0
-178 -191 0
-4 -191 0
-4 -178 0
-15 -146 0
-100 -146 0
-42 -146 0
-59 -146 0
-50 -146 0
-15 -100 0
-15 -42 0
-15 -59 0
-15 -50 0
-42 -100 0
-59 -100 0
-50 -100 0
-42 -59 0
-42 -50 0
-50 -59 0
-6 -200 0
-197 -200 0
-135 -200 0
-57 -200 0
-2 -200 0
-6 -197 0
-6 -135 0
-6 -57 0
-2 -6 0
-135 -197 0
-57 -197 0
-2 -197 0
-57 -135 0
-2 -135 0
-2 -57 0
-179 -205 0
-138 -205 0
-205 -232 0
-3 -205 0
-49 -205 0
-138 -179 0
-179 -232 0
-3 -179 0
-49 -179 0
-138 -232 0
-3 -138 0
-49 -138 0
-3 -232 0
-49 -232 0
-3 -49 0
-111 -119 0
-119 -163 0
-119 -195 0
-111 -163 0
-111 -195 0
-163 -195 0
-132 -156 0
-73 -156 0
-68 -156 0
-73 -132 0
-68 -132 0
-68 -73 0
-209 -216 0
-18 -209 0
-209 -233 0
-18 -216 0
-216 -233 0
-18 -233 0
-63 -87 0
-58 -87 0
-1 -87 0
-58 -63 0
-1 -63 0
-1 -58 0
-53 -55 0
-55 -151 0
-48 -55 0
-53 -151 0
-48 -53 0
-48 -151 0
-47 -219 0
-47 -103 0
-41 -47 0
-103 -219 0
-41 -219 0
-41 -103 0
-119 -156 0
-119 -209 0
-87 -119 0
-156 -209 0
-87 -156 0
-87 -209 0
-111 -132 0
-111 -216 0
-63 -111 0
-132 -216 0
-63 -132 0
-63 -216 0
-73 -163 0
-55 -163 0
-47 -163 0
-55 -73 0
-47 -73 0
-47 -55 0
-68 -195 0
-53 -195 0
-195 -219 0
-53 -68 0
-68 -219 0
-53 -219 0
-18 -58 0
-18 -151 0
-18 -103 0
-58 -151 0
-58 -103 0
-103 -151 0
-1 -233 0
-48 -233 0
-41 -233 0
-1 -48 0
-1 -41 0
-41 -48 0
-134 -142 0
-134 -174 0
-134 -221 0
-84 -134 0
-95 -134 0
-142 -174 0
-142 -221 0
-84 -142 0
-95 -142 0
-174 -221 0
-84 -174 0
-95 -174 0
-84 -221 0
-95 -221 0
-84 -95 0
-22 -223 0
-22 -89 0
-22 -115 0
-89 -223 0
-115 -223 0
-89 -115 0
-131 -153 0
-153 -208 0
-153 -215 0
-131 -208 0
-131 -215 0
-208 -215 0
-217 -225 0
-82 -217 0
-77 -217 0
-82 -225 0
-77 -225 0
-77 -82 0
-130 -145 0
-145 -211 0
-145 -171 0
-88 -145 0
-78 -145 0
-130 -211 0
-130 -171 0
-88 -130 0
-78 -130 0
-171 -211 0
-88 -211 0
-78 -211 0
-88 -171 0
-78 -171 0
-78 -88 0
-121 -144 0
-123 -144 0
-99 -144 0
-121 -123 0
-99 -121 0
-99 -123 0
-111 -119 0
-119 -156 0
-119 -132 0
-111 -156 0
-111 -132 0
-132 -156 0
-127 -168 0
-34 -127 0
-34 -168 0
-79 -90 0
-90 -101 0
-45 -90 0
-71 -90 0
-66 -90 0
-79 -101 0
-45 -79 0
-71 -79 0
-66 -79 0
-45 -101 0
-71 -101 0
-66 -101 0
-45 -71 0
-45 -66 0
-66 -71 0
-20 -116 0
-108 -116 0
-19 -116 0
-20 -108 0
-19 -20 0
-19 -108 0
-30 -227 0
-75 -227 0
-149 -227 0
-30 -75 0
-30 -149 0
-75 -149 0
-13 -85 0
-85 -96 0
-12 -85 0
-85 -109 0
-85 -159 0
-13 -96 0
-12 -13 0
-13 -109 0
-13 -159 0
-12 -96 0
-96 -109 0
-96 -159 0
-12 -109 0
-12 -159 0
-109 -159 0
-152 -192 0
-140 -152 0
-70 -152 0
-140 -192 0
-70 -192 0
-70 -140 0
-163 -195 0
-73 -163 0
-68 -163 0
-73 -195 0
-68 -195 0
-68 -73 0
-113 -198 0
-93 -113 0
-113 -230 0
-26 -113 0
-25 -113 0
-93 -198 0
-198 -230 0
-26 -198 0
-25 -198 0
-93 -230 0
-26 -93 0
-25 -93 0
-26 -230 0
-25 -230 0
-25 -26 0
-136 -165 0
-56 -136 0
-136 -175 0
-56 -165 0
-165 -175 0
-56 -175 0
-137 -203 0
-11 -137 0
-91 -137 0
-10 -137 0
-105 -137 0
-11 -203 0
-91 -203 0
-10 -203 0
-105 -203 0
-11 -91 0
-10 -11 0
-11 -105 0
-10 -91 0
-91 -105 0
-10 -105 0
-8 -172 0
-7 -172 0
-172 -176 0
-7 -8 0
-8 -176 0
-7 -176 0
-146 -200 0
-146 -205 0
-15 -146 0
-6 -146 0
-146 -179 0
-200 -205 0
-15 -200 0
-6 -200 0
-179 -200 0
-15 -205 0
-6 -205 0
-179 -205 0
-6 -15 0
-15 -179 0
-6 -179 0
-187 -210 0
-187 -238 0
-210 -238 0
-204 -213 0
-102 -143 0
-102 -112 0
-102 -124 0
-112 -143 0
-124 -143 0
-112 -124 0
-180 -183 0
-180 -201 0
-180 -206 0
-129 -180 0
-169 -180 0
-183 -201 0
-183 -206 0
-129 -183 0
-169 -183 0
-201 -206 0
-129 -201 0
-169 -201 0
-129 -206 0
-169 -206 0
-129 -169 0
-185 -189 0
-185 -207 0
-185 -214 0
-189 -207 0
-189 -214 0
-207 -214 0
-154 -181 0
-181 -234 0
-181 -235 0
-154 -234 0
-154 -235 0
-234 -235 0
-97 -186 0
-97 -110 0
-97 -161 0
-97 -117 0
-97 -237 0
-110 -186 0
-161 -186 0
-117 -186 0
-186 -237 0
-110 -161 0
-110 -117 0
-110 -237 0
-117 -161 0
-161 -237 0
-117 -237 0
-182 -202 0
-164 -182 0
-164 -202 0
-209 -216 0
-87 -209 0
-63 -209 0
-87 -216 0
-63 -216 0
-63 -87 0
-33 -190 0
-32 -33 0
-33 -218 0
-33 -226 0
-33 -228 0
-33 -81 0
-33 -76 0
-33 -74 0
-32 -190 0
-190 -218 0
-190 -226 0
-190 -228 0
-81 -190 0
-76 -190 0
-74 -190 0
-32 -218 0
-32 -226 0
-32 -228 0
-32 -81 0
-32 -76 0
-32 -74 0
-218 -226 0
-218 -228 0
-81 -218 0
-76 -218 0
-74 -218 0
-226 -228 0
-81 -226 0
-76 -226 0
-74 -226 0
-81 -228 0
-76 -228 0
-74 -228 0
-76 -81 0
-74 -81 0
-74 -76 0
-120 -128 0
-98 -120 0
-21 -120 0
-98 -128 0
-21 -128 0
-21 -98 0
-52 -150 0
-52 -220 0
-52 -104 0
-52 -62 0
-52 -139 0
-150 -220 0
-104 -150 0
-62 -150 0
-139 -150 0
-104 -220 0
-62 -220 0
-139 -220 0
-62 -104 0
-104 -139 0
-62 -139 0
-126 -166 0
-37 -126 0
-61 -126 0
-37 -166 0
-61 -166 0
-37 -61 0
-92 -141 0
-141 -222 0
-107 -141 0
-94 -141 0
-35 -141 0
-92 -222 0
-92 -107 0
-92 -94 0
-35 -92 0
-107 -222 0
-94 -222 0
-35 -222 0
-94 -107 0
-35 -107 0
-35 -94 0
-5 -191 0
-5 -224 0
-5 -178 0
-5 -114 0
-4 -5 0
-191 -224 0
-178 -191 0
-114 -191 0
-4 -191 0
-178 -224 0
-114 -224 0
-4 -224 0
-114 -178 0
-4 -178 0
-4 -114 0
-133 -158 0
-31 -158 0
-122 -158 0
-148 -158 0
-29 -158 0
-31 -133 0
-122 -133 0
-133 -148 0
-29 -133 0
-31 -122 0
-31 -148 0
-29 -31 0
-122 -148 0
-29 -122 0
-29 -148 0
-147 -193 0
-17 -193 0
-193 -229 0
-69 -193 0
-16 -193 0
-17 -147 0
-147 -229 0
-69 -147 0
-16 -147 0
-17 -229 0
-17 -69 0
-16 -17 0
-69 -229 0
-16 -229 0
-16 -69 0
-14 -196 0
-80 -199 0
-44 -80 0
-80 -231 0
-65 -80 0
-24 -80 0
-44 -199 0
-199 -231 0
-65 -199 0
-24 -199 0
-44 -231 0
-44 -65 0
-24 -44 0
-65 -231 0
-24 -231 0
-24 -65 0
-100 -197 0
-100 -138 0
-42 -100 0
-100 -135 0
-100 -232 0
-59 -100 0
-57 -100 0
-3 -100 0
-138 -197 0
-42 -197 0
-135 -197 0
-197 -232 0
-59 -197 0
-57 -197 0
-3 -197 0
-42 -138 0
-135 -138 0
-138 -232 0
-59 -138 0
-57 -138 0
-3 -138 0
-42 -135 0
-42 -232 0
-42 -59 0
-42 -57 0
-3 -42 0
-135 -232 0
-59 -135 0
-57 -135 0
-3 -135 0
-59 -232 0
-57 -232 0
-3 -232 0
-57 -59 0
-3 -59 0
-3 -57 0
-18 -233 0
-18 -58 0
-1 -18 0
-58 -233 0
-1 -233 0
-1 -58 0
-184 -188 0
-118 -184 0
-28 -184 0
-27 -184 0
-155 -184 0
-118 -188 0
-28 -188 0
-27 -188 0
-155 -188 0
-28 -118 0
-27 -118 0
-118 -155 0
-27 -28 0
-28 -155 0
-27 -155 0
-51 -54 0
-23 -54 0
-40 -54 0
-23 -51 0
-40 -51 0
-23 -40 0
-160 -173 0
-160 -236 0
-83 -160 0
-173 -236 0
-83 -173 0
-83 -236 0
-39 -86 0
-170 -212 0
-53 -55 0
-47 -55 0
-55 -219 0
-47 -53 0
-53 -219 0
-47 -219 0
-162 -194 0
-72 -162 0
-67 -162 0
-72 -194 0
-67 -194 0
-67 -72 0
-125 -167 0
-38 -125 0
-60 -125 0
-38 -167 0
-60 -167 0
-38 -60 0
-46 -106 0
-36 -106 0
-64 -106 0
-36 -46 0
-46 -64 0
-36 -64 0
-43 -177 0
-9 -157 0
-2 -50 0
-49 -50 0
-2 -49 0
-48 -151 0
-103 -151 0
-41 -151 0
-48 -103 0
-41 -48 0
-41 -103 0
